<number of tasks>
50

<cycle time>
1000

<order strength>
0.196


<task times>
1 173
2 189
3 72
4 410
5 56
6 79
7 198
8 20
9 569
10 503
11 159
12 151
13 266
14 312
15 447
16 131
17 216
18 38
19 367
20 221
21 73
22 242
23 74
24 129
25 289
26 209
27 145
28 151
29 124
30 182
31 491
32 336
33 167
34 487
35 62
36 21
37 71
38 143
39 279
40 142
41 137
42 35
43 525
44 465
45 28
46 551
47 146
48 96
49 77
50 270

<precedence relations>
1,25
2,25
3,10
3,40
4,9
5,7
5,8
5,11
5,24
6,25
6,40
7,12
7,23
8,13
8,48
9,14
9,15
11,22
12,18
13,19
14,16
14,17
14,20
14,22
14,23
14,24
15,21
15,24
15,40
16,25
17,25
18,28
19,29
20,26
21,27
22,30
23,31
23,32
25,33
25,34
25,35
25,36
25,41
26,37
27,38
28,39
29,47
30,40
33,45
33,46
35,45
37,42
38,44
39,43
40,47
42,48
43,49
45,50

<end>
